============================[ Problem Statistics ]=============================|                                                                             ||  Number of variables:          4242                                         ||  Number of clauses:           10234                                         ||  Parse time:                   0.63 s                                       ||                                                                             |============================[ Search Statistics ]==============================| Conflicts |          ORIGINAL         |          LEARNT          | Progress ||           |    Vars  Clauses Literals |    Limit  Clauses Lit/Cl |          |===============================================================================|       100 |    1591     6439   991850 |     2360      100     53 | 62.501 % ||       250 |    1591     6439   991850 |     2597      250     75 | 62.495 % |===============================================================================restarts              : 3conflicts             : 341            (356 /sec)decisions             : 603            (0.00 % random) (629 /sec)propagations          : 11933          (12456 /sec)conflict literals     : 27557          (94.65 % deleted)CPU time              : 0.958 sSATISFIABLE